
Gurobi 11.0.3 (linux64) logging started Sat Nov 23 19:42:59 2024

Set parameter LogFile to value "/home/yihong/Coding/OR_SUC/SUC_results_bigM100000_thread4/case24_ieee_rts_theta0.1_epsilon0.025_gurobi_seed630000_num_gen100_N_WDR50_load_scaling_factor1_proposed_T24quadra_cost.txt"
Set parameter TimeLimit to value 3600
Gurobi Optimizer version 11.0.3 build v11.0.3rc0 (linux64 - "Ubuntu 20.04.6 LTS")

CPU model: AMD EPYC 7532 32-Core Processor, instruction set [SSE2|AVX|AVX2]
Thread count: 64 physical cores, 128 logical processors, using up to 4 threads

Optimize a model with 50020 rows, 29811 columns and 506326 nonzeros
Model fingerprint: 0x5368dd7f
Model has 2400 quadratic constraints
Variable types: 27411 continuous, 2400 integer (2400 binary)
Coefficient statistics:
  Matrix range     [3e-04, 3e+03]
  QMatrix range    [2e-03, 8e-03]
  QLMatrix range   [4e-01, 6e+01]
  Objective range  [1e+00, 1e+00]
  Bounds range     [1e+00, 1e+00]
  RHS range        [1e+00, 9e+03]
Presolve removed 40337 rows and 12932 columns
Presolve time: 0.21s
Presolved: 9683 rows, 16879 columns, 51562 nonzeros
Presolved model has 2400 quadratic constraint(s)
Variable types: 14479 continuous, 2400 integer (2400 binary)

Root relaxation: objective 3.396891e+04, 7564 iterations, 0.17 seconds (0.23 work units)

    Nodes    |    Current Node    |     Objective Bounds      |     Work
 Expl Unexpl |  Obj  Depth IntInf | Incumbent    BestBd   Gap | It/Node Time

H    0     0                    634610.56764 33968.9104  94.6%     -    0s
*    0     0               0    634610.56764 33968.9104  94.6%     -    0s
     0     0 351400.011    0  669 634610.568 351400.011  44.6%     -    1s
     0     0 592376.450    0  262 634610.568 592376.450  6.66%     -    1s
     0     0 592452.249    0   21 634610.568 592452.249  6.64%     -    1s
     0     0 592573.981    0   15 634610.568 592573.981  6.62%     -    1s
     0     0 592574.734    0   15 634610.568 592574.734  6.62%     -    1s
     0     0 592574.975    0   15 634610.568 592574.975  6.62%     -    1s
     0     0 592575.788    0   15 634610.568 592575.788  6.62%     -    1s
     0     2 592575.788    0   15 634610.568 592575.788  6.62%     -    2s
   164   184 594629.423   40   64 634610.568 592587.584  6.62%  36.6    5s
   471   442 594667.382   67   15 634610.568 592590.396  6.62%  46.5   11s
   493   458 593025.121   23   15 634610.568 592674.705  6.61%  73.5   15s
   586   533 592829.023   33    8 634610.568 592686.958  6.61%  95.8   20s
H  732   610                    593350.92982 592686.958  0.11%  89.9   21s
*  732   610              57    593350.92982 592686.958  0.11%  90.1   21s
H  939   523                    592774.33985 592693.827  0.01%  84.6   24s
*  939   523              48    592774.33985 592693.827  0.01%  84.6   24s

Cutting planes:
  Cover: 1
  Implied bound: 82
  MIR: 36
  Flow cover: 14
  RLT: 86

Explored 1029 nodes (103264 simplex iterations) in 25.43 seconds (32.97 work units)
Thread count was 4 (of 128 available processors)

Solution count 3: 592774 593351 634611 

Optimal solution found (tolerance 1.00e-03)
Warning: max constraint violation (4.1410e-08) exceeds tolerance
Best objective 5.927743398495e+05, best bound 5.926938271924e+05, gap 0.0136%
